% n = 2;
% M =
% [| 1, 1
%  | 0, 1
%  |];

% n = 2;
% M =
% [| 1, 0
%  | 0, 1
%  |];

n = 3;
M = 
[| 0, 1, 1
 | 1, 0, 0
 | 0, 0, 1
 |];
% path =
% [| 0, 0, 1
%  | 0, 0, 0
%  | 0, 0, 0
%  |];

% n = 5;
% M = [|1,0,1,0,1
%      |1,1,1,1,1
%      |0,0,0,0,0
%      |0,0,1,0,0
%      |0,1,0,1,0
%      |];